synthesis/NR_LRA/smt2/min10.smt2
(set-logic LRA)

(assert-synth (
    (x1 Real)
    (x2 Real)
    (x3 Real)
    (x4 Real)
    (x5 Real)
    (x6 Real)
    (x7 Real)
    (x8 Real)
    (x9 Real)
    (x10 Real))
    ((y Real))
        (and
            (>= x1 y)
            (>= x2 y)
            (>= x3 y)
            (>= x4 y)
            (>= x5 y)
            (>= x6 y)
            (>= x7 y)
            (>= x8 y)
            (>= x9 y)
            (>= x10 y)
            (or
                (= y x1)
                (= y x2)
                (= y x3)
                (= y x4)
                (= y x5)
                (= y x6)
                (= y x7)
                (= y x8)
                (= y x9)
                (= y x10)
            )
))
